(declare-fun var0 () String)
(assert (RegexIn var0 (RegexConcat (RegexPlus (RegexPlus (Str2Reg "ee"))) (RegexConcat (RegexStar (RegexUnion (Str2Reg "c") (Str2Reg "dd"))) (RegexConcat (RegexUnion (RegexStar (Str2Reg "aaa")) (RegexStar (Str2Reg "b"))) (RegexConcat (RegexPlus (RegexStar (Str2Reg "9"))) (RegexConcat (RegexPlus (RegexPlus (Str2Reg "88"))) (RegexConcat (RegexStar (RegexStar (Str2Reg "77"))) (RegexConcat (RegexStar (RegexPlus (Str2Reg "6"))) (RegexConcat (RegexUnion (RegexStar (Str2Reg "444")) (RegexStar (Str2Reg "55"))) (RegexConcat (RegexPlus (RegexStar (Str2Reg "333"))) (RegexUnion (RegexUnion (Str2Reg "000") (Str2Reg "1")) (RegexPlus (Str2Reg "2"))))))))))))))
(assert (RegexIn var0 (RegexConcat (RegexPlus (RegexStar (Str2Reg "f"))) (RegexConcat (RegexStar (RegexUnion (Str2Reg "ddd") (Str2Reg "e"))) (RegexConcat (RegexUnion (RegexStar (Str2Reg "bbb")) (RegexStar (Str2Reg "c"))) (RegexConcat (RegexUnion (RegexStar (Str2Reg "999")) (RegexStar (Str2Reg "aaa"))) (RegexConcat (RegexStar (RegexStar (Str2Reg "888"))) (RegexConcat (RegexStar (RegexStar (Str2Reg "777"))) (RegexConcat (RegexUnion (RegexStar (Str2Reg "555")) (RegexPlus (Str2Reg "66"))) (RegexConcat (RegexUnion (RegexPlus (Str2Reg "33")) (RegexStar (Str2Reg "44"))) (RegexConcat (RegexPlus (RegexPlus (Str2Reg "22"))) (RegexUnion (RegexPlus (Str2Reg "0")) (RegexPlus (Str2Reg "1"))))))))))))))
(assert (RegexIn var0 (RegexConcat (RegexPlus (RegexPlus (Str2Reg "i"))) (RegexConcat (RegexStar (RegexPlus (Str2Reg "hh"))) (RegexConcat (RegexStar (RegexPlus (Str2Reg "g"))) (RegexConcat (RegexUnion (RegexPlus (Str2Reg "dd")) (RegexUnion (Str2Reg "eee") (Str2Reg "f"))) (RegexConcat (RegexStar (RegexUnion (Str2Reg "b") (Str2Reg "ccc"))) (RegexConcat (RegexPlus (RegexPlus (Str2Reg "aa"))) (RegexConcat (RegexPlus (RegexStar (Str2Reg "99"))) (RegexConcat (RegexUnion (RegexUnion (Str2Reg "555") (Str2Reg "666")) (RegexUnion (Str2Reg "777") (Str2Reg "8"))) (RegexConcat (RegexUnion (RegexPlus (Str2Reg "333")) (RegexStar (Str2Reg "44"))) (RegexUnion (RegexPlus (Str2Reg "00")) (RegexUnion (Str2Reg "111") (Str2Reg "222"))))))))))))))
(assert (RegexIn var0 (RegexConcat (RegexStar (RegexPlus (Str2Reg "gg"))) (RegexConcat (RegexPlus (RegexPlus (Str2Reg "ff"))) (RegexConcat (RegexUnion (RegexUnion (Str2Reg "ccc") (Str2Reg "dd")) (RegexStar (Str2Reg "e"))) (RegexConcat (RegexPlus (RegexStar (Str2Reg "bbb"))) (RegexConcat (RegexPlus (RegexStar (Str2Reg "aaa"))) (RegexConcat (RegexUnion (RegexPlus (Str2Reg "77")) (RegexUnion (Str2Reg "88") (Str2Reg "9"))) (RegexConcat (RegexUnion (RegexStar (Str2Reg "4")) (RegexUnion (Str2Reg "55") (Str2Reg "6"))) (RegexConcat (RegexPlus (RegexPlus (Str2Reg "333"))) (RegexConcat (RegexPlus (RegexUnion (Str2Reg "111") (Str2Reg "2"))) (RegexPlus (RegexStar (Str2Reg "000"))))))))))))))
(assert (RegexIn var0 (RegexConcat (RegexStar (RegexPlus (Str2Reg "d"))) (RegexConcat (RegexPlus (RegexUnion (Str2Reg "b") (Str2Reg "cc"))) (RegexConcat (RegexPlus (RegexPlus (Str2Reg "a"))) (RegexConcat (RegexStar (RegexPlus (Str2Reg "999"))) (RegexConcat (RegexUnion (RegexUnion (Str2Reg "6") (Str2Reg "7")) (RegexPlus (Str2Reg "88"))) (RegexConcat (RegexStar (RegexStar (Str2Reg "55"))) (RegexConcat (RegexPlus (RegexStar (Str2Reg "4"))) (RegexConcat (RegexStar (RegexPlus (Str2Reg "333"))) (RegexConcat (RegexStar (RegexUnion (Str2Reg "111") (Str2Reg "22"))) (RegexStar (RegexStar (Str2Reg "00"))))))))))))))
(assert (RegexIn var0 (RegexConcat (RegexUnion (RegexUnion (Str2Reg "ddd") (Str2Reg "e")) (RegexStar (Str2Reg "f"))) (RegexConcat (RegexStar (RegexStar (Str2Reg "cc"))) (RegexConcat (RegexStar (RegexPlus (Str2Reg "bbb"))) (RegexConcat (RegexStar (RegexStar (Str2Reg "aa"))) (RegexConcat (RegexUnion (RegexStar (Str2Reg "888")) (RegexStar (Str2Reg "999"))) (RegexConcat (RegexStar (RegexUnion (Str2Reg "6") (Str2Reg "77"))) (RegexConcat (RegexPlus (RegexPlus (Str2Reg "555"))) (RegexConcat (RegexStar (RegexUnion (Str2Reg "33") (Str2Reg "44"))) (RegexConcat (RegexUnion (RegexStar (Str2Reg "11")) (RegexPlus (Str2Reg "2"))) (RegexStar (RegexPlus (Str2Reg "000"))))))))))))))
(assert (RegexIn var0 (RegexConcat (RegexStar (RegexStar (Str2Reg "j"))) (RegexConcat (RegexPlus (RegexPlus (Str2Reg "i"))) (RegexConcat (RegexStar (RegexUnion (Str2Reg "gg") (Str2Reg "hh"))) (RegexConcat (RegexPlus (RegexUnion (Str2Reg "eee") (Str2Reg "ff"))) (RegexConcat (RegexUnion (RegexUnion (Str2Reg "aaa") (Str2Reg "bbb")) (RegexUnion (Str2Reg "ccc") (Str2Reg "dd"))) (RegexConcat (RegexUnion (RegexStar (Str2Reg "777")) (RegexUnion (Str2Reg "8") (Str2Reg "9"))) (RegexConcat (RegexUnion (RegexStar (Str2Reg "55")) (RegexPlus (Str2Reg "666"))) (RegexConcat (RegexPlus (RegexUnion (Str2Reg "33") (Str2Reg "444"))) (RegexConcat (RegexStar (RegexUnion (Str2Reg "11") (Str2Reg "2"))) (RegexStar (RegexStar (Str2Reg "00"))))))))))))))
(assert (RegexIn var0 (RegexConcat (RegexUnion (RegexUnion (Str2Reg "dd") (Str2Reg "eee")) (RegexStar (Str2Reg "ff"))) (RegexConcat (RegexStar (RegexStar (Str2Reg "cc"))) (RegexConcat (RegexUnion (RegexStar (Str2Reg "aaa")) (RegexPlus (Str2Reg "bbb"))) (RegexConcat (RegexPlus (RegexStar (Str2Reg "99"))) (RegexConcat (RegexPlus (RegexStar (Str2Reg "8"))) (RegexConcat (RegexStar (RegexStar (Str2Reg "7"))) (RegexConcat (RegexStar (RegexUnion (Str2Reg "55") (Str2Reg "666"))) (RegexConcat (RegexUnion (RegexStar (Str2Reg "333")) (RegexPlus (Str2Reg "444"))) (RegexConcat (RegexUnion (RegexPlus (Str2Reg "1")) (RegexPlus (Str2Reg "2"))) (RegexPlus (RegexStar (Str2Reg "000"))))))))))))))
(assert (RegexIn var0 (RegexConcat (RegexUnion (RegexUnion (Str2Reg "ff") (Str2Reg "gg")) (RegexPlus (Str2Reg "hhh"))) (RegexConcat (RegexUnion (RegexStar (Str2Reg "ccc")) (RegexUnion (Str2Reg "dd") (Str2Reg "eee"))) (RegexConcat (RegexStar (RegexStar (Str2Reg "b"))) (RegexConcat (RegexStar (RegexPlus (Str2Reg "aa"))) (RegexConcat (RegexStar (RegexUnion (Str2Reg "8") (Str2Reg "9"))) (RegexConcat (RegexPlus (RegexPlus (Str2Reg "77"))) (RegexConcat (RegexStar (RegexUnion (Str2Reg "555") (Str2Reg "666"))) (RegexConcat (RegexUnion (RegexStar (Str2Reg "3")) (RegexPlus (Str2Reg "44"))) (RegexConcat (RegexStar (RegexStar (Str2Reg "22"))) (RegexUnion (RegexStar (Str2Reg "000")) (RegexStar (Str2Reg "1"))))))))))))))
(assert (RegexIn var0 (RegexConcat (RegexStar (RegexPlus (Str2Reg "kkk"))) (RegexConcat (RegexPlus (RegexUnion (Str2Reg "iii") (Str2Reg "jjj"))) (RegexConcat (RegexUnion (RegexStar (Str2Reg "fff")) (RegexUnion (Str2Reg "g") (Str2Reg "h"))) (RegexConcat (RegexUnion (RegexStar (Str2Reg "ccc")) (RegexUnion (Str2Reg "ddd") (Str2Reg "ee"))) (RegexConcat (RegexUnion (RegexPlus (Str2Reg "aa")) (RegexPlus (Str2Reg "bbb"))) (RegexConcat (RegexUnion (RegexPlus (Str2Reg "888")) (RegexPlus (Str2Reg "999"))) (RegexConcat (RegexUnion (RegexPlus (Str2Reg "555")) (RegexUnion (Str2Reg "666") (Str2Reg "777"))) (RegexConcat (RegexPlus (RegexStar (Str2Reg "444"))) (RegexConcat (RegexUnion (RegexPlus (Str2Reg "22")) (RegexPlus (Str2Reg "3"))) (RegexStar (RegexUnion (Str2Reg "00") (Str2Reg "111"))))))))))))))
(assert (RegexIn var0 (RegexConcat (RegexPlus (RegexUnion (Str2Reg "hhh") (Str2Reg "iii"))) (RegexConcat (RegexUnion (RegexUnion (Str2Reg "eee") (Str2Reg "fff")) (RegexStar (Str2Reg "g"))) (RegexConcat (RegexPlus (RegexPlus (Str2Reg "ddd"))) (RegexConcat (RegexUnion (RegexStar (Str2Reg "bbb")) (RegexStar (Str2Reg "c"))) (RegexConcat (RegexUnion (RegexStar (Str2Reg "88")) (RegexUnion (Str2Reg "999") (Str2Reg "a"))) (RegexConcat (RegexStar (RegexPlus (Str2Reg "777"))) (RegexConcat (RegexPlus (RegexPlus (Str2Reg "666"))) (RegexConcat (RegexUnion (RegexStar (Str2Reg "444")) (RegexStar (Str2Reg "555"))) (RegexConcat (RegexUnion (RegexStar (Str2Reg "11")) (RegexUnion (Str2Reg "222") (Str2Reg "333"))) (RegexPlus (RegexPlus (Str2Reg "0"))))))))))))))
(assert (RegexIn var0 (RegexConcat (RegexStar (RegexStar (Str2Reg "jjj"))) (RegexConcat (RegexUnion (RegexUnion (Str2Reg "ggg") (Str2Reg "h")) (RegexPlus (Str2Reg "iii"))) (RegexConcat (RegexUnion (RegexUnion (Str2Reg "d") (Str2Reg "ee")) (RegexStar (Str2Reg "ff"))) (RegexConcat (RegexStar (RegexStar (Str2Reg "ccc"))) (RegexConcat (RegexPlus (RegexStar (Str2Reg "b"))) (RegexConcat (RegexUnion (RegexPlus (Str2Reg "99")) (RegexStar (Str2Reg "a"))) (RegexConcat (RegexStar (RegexPlus (Str2Reg "88"))) (RegexConcat (RegexUnion (RegexStar (Str2Reg "5")) (RegexUnion (Str2Reg "666") (Str2Reg "777"))) (RegexConcat (RegexUnion (RegexPlus (Str2Reg "333")) (RegexStar (Str2Reg "444"))) (RegexUnion (RegexStar (Str2Reg "0")) (RegexUnion (Str2Reg "111") (Str2Reg "2"))))))))))))))
(assert (RegexIn var0 (RegexConcat (RegexStar (RegexPlus (Str2Reg "ggg"))) (RegexConcat (RegexUnion (RegexUnion (Str2Reg "d") (Str2Reg "eee")) (RegexPlus (Str2Reg "ff"))) (RegexConcat (RegexStar (RegexUnion (Str2Reg "bbb") (Str2Reg "cc"))) (RegexConcat (RegexStar (RegexPlus (Str2Reg "a"))) (RegexConcat (RegexPlus (RegexPlus (Str2Reg "9"))) (RegexConcat (RegexPlus (RegexPlus (Str2Reg "8"))) (RegexConcat (RegexUnion (RegexStar (Str2Reg "555")) (RegexUnion (Str2Reg "6") (Str2Reg "777"))) (RegexConcat (RegexPlus (RegexPlus (Str2Reg "4"))) (RegexConcat (RegexUnion (RegexPlus (Str2Reg "111")) (RegexUnion (Str2Reg "222") (Str2Reg "333"))) (RegexStar (RegexStar (Str2Reg "00"))))))))))))))
(check-sat)